Sun 20 May 09:38:06 CEST 2018
CPXPARAM_TimeLimit                               45
CPXPARAM_Threads                                 4
CPXPARAM_MIP_Strategy_CallbackReducedLP          0
Tried aggregator 3 times.
MIP Presolve eliminated 802 rows and 775 columns.
MIP Presolve modified 2780 coefficients.
Aggregator did 5002 substitutions.
Reduced MIP has 8042 rows, 6060 columns, and 17706 nonzeros.
Reduced MIP has 5334 binaries, 6 generals, 0 SOSs, and 830 indicators.
Presolve time = 0.06 sec. (97.87 ticks)
Found incumbent of value 11.000000 after 0.08 sec. (121.99 ticks)
Probing time = 0.13 sec. (49.06 ticks)
Tried aggregator 3 times.
Aggregator did 3560 substitutions.
Reduced MIP has 4482 rows, 2500 columns, and 10586 nonzeros.
Reduced MIP has 1774 binaries, 726 generals, 0 SOSs, and 830 indicators.
Presolve time = 0.02 sec. (19.47 ticks)
Probing time = 0.02 sec. (14.99 ticks)
Tried aggregator 1 time.
Reduced MIP has 4482 rows, 2500 columns, and 10586 nonzeros.
Reduced MIP has 1774 binaries, 726 generals, 0 SOSs, and 830 indicators.
Presolve time = 0.01 sec. (9.16 ticks)
Probing time = 0.01 sec. (4.58 ticks)
Clique table members: 61915.
MIP emphasis: balance optimality and feasibility.
MIP search method: dynamic search.
Parallel mode: deterministic, using up to 4 threads.
Root relaxation solution time = 0.03 sec. (28.75 ticks)

        Nodes                                         Cuts/
   Node  Left     Objective  IInf  Best Integer    Best Bound    ItCnt     Gap

*     0+    0                           11.0000        0.0000           100.00%
      0     0        0.0000  1074       11.0000        0.0000      414  100.00%
*     0+    0                            4.0000        0.0000           100.00%
*     0+    0                            2.0000        0.0000           100.00%
      0     0        cutoff              2.0000        2.0000      417    0.00%
Elapsed time = 1.26 sec. (1266.13 ticks, tree = 0.01 MB, solutions = 3)

Root node processing (before b&c):
  Real time             =    1.27 sec. (1266.62 ticks)
Parallel b&c, 4 threads:
  Real time             =    0.00 sec. (0.00 ticks)
  Sync time (average)   =    0.00 sec.
  Wait time (average)   =    0.00 sec.
                          ------------
Total (root+branch&cut) =    1.27 sec. (1266.62 ticks)
   | W
 L | 0 1 2 3 4 5 6 7 8 9 
-------------------------
 0 | . 3 3 3 4 5 2 2 2 . 
 1 | 1 3 3 3 4 5 2 2 2 . 
 2 | . . . . . . . . . . 
 3 | . . . . . . . . . . 
 4 | . . . . . . . . . . 
 5 | . . . . . . . . . . 
 6 | . . . . . . . . . . 
 7 | . . . . . . . . . . 
 8 | . . . . . . . . . . 
 9 | . . . . . . . . . . 
10 | . . . . . . . . . . 

Boxes' corners:      (w,l)
    Box 1 is at 
        top left     (0,1)
        bottom right (0,1)

    Box 2 is at 
        top left     (6,0)
        bottom right (8,1)

    Box 3 is at 
        top left     (1,0)
        bottom right (3,1)

    Box 4 is at 
        top left     (4,0)
        bottom right (4,1)

    Box 5 is at 
        top left     (5,0)
        bottom right (5,1)

    Roll length used: 2
In 3.39 seconds
